benchmark/results/graph__15-1000-0.10-02_12/graph__15-1000-0.10-02_12_QuintonOs_Benders_aux.lp
\ This file has been generated by DOcplex
\ ENCODING=ISO-8859-1
\Problem name: Quinton Bounded Benders_auxiliary_sub

Minimize
 obj: 0.000974700213 pi_nr_a0 + 0.001503973447 pi_nr_a1
      + 0.000996818557 pi_nr_a2 + 0.000781860829 pi_nr_a3
      + 0.002000000000 pi_nr_a4 + 0.001360446794 pi_nr_a5
      + 0.001049317943 pi_nr_a6 + 0.001103027048 pi_nr_a7
      + 0.001057716643 pi_nr_a8 + 0.001169590643 pi_nr_a9
      + 0.002511232197 pi_nr_a10 + 0.002009848792 pi_nr_a11
      + 0.001364256480 pi_nr_a12 + 0.001652892562 pi_nr_a13
      + 0.001103752759 pi_nr_a14 + pi_p_a0_a2 + pi_p_a0_a12 + pi_p_a6_a6
      + pi_p_a14_a14 + 1800.039946942798 pi_d_a0_a1_proc_0
      + 771.079939826792 pi_d_a0_a1_proc_1 + 1787.920060175534 pi_d_a1_a0_proc_0
      + 758.960053059528 pi_d_a1_a0_proc_1 + 743.354341136195 pi_d_a0_a2_proc_0
      + 1834.289098896325 pi_d_a0_a2_proc_1 + 724.710901106001 pi_d_a2_a0_proc_0
      + 1815.645658866130 pi_d_a2_a0_proc_1 + 608.293076282487 pi_d_a0_a3_proc_1
      + 592.286606443905 pi_d_a3_a0_proc_1 + 684.391307109478 pi_d_a0_a4_proc_0
      + 675.029010171107 pi_d_a4_a0_proc_0 + 1184.203920076224 pi_d_a0_a5_proc_0
      + 1404.552591847630 pi_d_a0_a5_proc_1
      + 1154.447408154696 pi_d_a5_a0_proc_0
      + 1374.796079926102 pi_d_a5_a0_proc_1 + 688.706923720986 pi_d_a0_a6_proc_0
      + 670.713393559599 pi_d_a6_a0_proc_0 + 837.546256650834 pi_d_a0_a7_proc_0
      + 1712.066408761397 pi_d_a0_a7_proc_1 + 846.933591240929 pi_d_a7_a0_proc_0
      + 1721.453743351492 pi_d_a7_a0_proc_1
      + 1597.022576544141 pi_d_a0_a8_proc_0 + 955.550518343620 pi_d_a0_a8_proc_1
      + 1603.449481658706 pi_d_a8_a0_proc_0 + 961.977423458185 pi_d_a8_a0_proc_1
      + 683.412365025352 pi_d_a0_a9_proc_0 + 676.007952255233 pi_d_a9_a0_proc_0
      + 1046.816907532323 pi_d_a0_a10_proc_0
      + 1527.576093834811 pi_d_a0_a10_proc_1
      + 1031.423906167514 pi_d_a10_a0_proc_0
      + 1512.183092470003 pi_d_a10_a0_proc_1
      + 773.406115850275 pi_d_a0_a11_proc_0
      + 1805.460707563218 pi_d_a0_a11_proc_1
      + 753.539292439108 pi_d_a11_a0_proc_0
      + 1785.593884152050 pi_d_a11_a0_proc_1
      + 608.293076282487 pi_d_a0_a12_proc_1
      + 592.286606443905 pi_d_a12_a0_proc_1
      + 608.293074091958 pi_d_a0_a13_proc_1
      + 592.286608634434 pi_d_a13_a0_proc_1
      + 674.851133466552 pi_d_a0_a14_proc_0
      + 684.569183814034 pi_d_a14_a0_proc_0
      + 1166.455776341704 pi_d_a1_a2_proc_0
      + 1387.271161540021 pi_d_a1_a2_proc_1
      + 1171.728838462304 pi_d_a2_a1_proc_0
      + 1392.544223660621 pi_d_a2_a1_proc_1 + 167.790891971484 pi_d_a1_a3_proc_1
      + 162.669418193096 pi_d_a3_a1_proc_1 + 1129.203244542523 pi_d_a1_a4_proc_0
      + 1100.336445299875 pi_d_a4_a1_proc_0
      + 1616.821096763761 pi_d_a1_a5_proc_0 + 967.050395973354 pi_d_a1_a5_proc_1
      + 1591.949604028971 pi_d_a5_a1_proc_0 + 942.178903238565 pi_d_a5_a1_proc_1
      + 1129.208100951912 pi_d_a1_a6_proc_0
      + 1100.331588890486 pi_d_a6_a1_proc_0
      + 1275.393614475627 pi_d_a1_a7_proc_0
      + 1279.794394024378 pi_d_a1_a7_proc_1
      + 1279.205605977948 pi_d_a7_a1_proc_0
      + 1283.606385526698 pi_d_a7_a1_proc_1
      + 2034.324247947236 pi_d_a1_a8_proc_0 + 522.732817184903 pi_d_a1_a8_proc_1
      + 2036.267182817423 pi_d_a8_a1_proc_0 + 524.675752055089 pi_d_a8_a1_proc_1
      + 1102.387535065345 pi_d_a1_a9_proc_0
      + 1127.152154777053 pi_d_a9_a1_proc_0
      + 1486.615684826904 pi_d_a1_a10_proc_0
      + 1097.255498567580 pi_d_a1_a10_proc_1
      + 1461.744501434746 pi_d_a10_a1_proc_0
      + 1072.384315175422 pi_d_a10_a1_proc_1
      + 1212.017930892301 pi_d_a1_a11_proc_0
      + 1373.953150043430 pi_d_a1_a11_proc_1
      + 1185.046849958895 pi_d_a11_a1_proc_0
      + 1346.982069110025 pi_d_a11_a1_proc_1
      + 163.239824589386 pi_d_a1_a12_proc_1
      + 167.220485575193 pi_d_a12_a1_proc_1
      + 163.477415364222 pi_d_a1_a13_proc_1
      + 166.982894800358 pi_d_a13_a1_proc_1
      + 1131.264166742681 pi_d_a1_a14_proc_0
      + 1098.275523099716 pi_d_a14_a1_proc_0
      + 1240.955503225987 pi_d_a2_a3_proc_1
      + 1209.399571814728 pi_d_a3_a2_proc_1 + 51.096664118244 pi_d_a2_a4_proc_0
      + 58.548260848019 pi_d_a4_a2_proc_0 + 550.926857872966 pi_d_a2_a5_proc_0
      + 2021.050921958695 pi_d_a2_a5_proc_1 + 537.949078043631 pi_d_a5_a2_proc_0
      + 2008.073142129359 pi_d_a5_a2_proc_1 + 54.915269607924 pi_d_a2_a6_proc_0
      + 54.729655358339 pi_d_a6_a2_proc_0 + 220.531105540552 pi_d_a2_a7_proc_0
      + 2344.826649965437 pi_d_a2_a7_proc_1 + 214.173350036888 pi_d_a7_a2_proc_0
      + 2338.468894461774 pi_d_a7_a2_proc_1 + 986.758194398183 pi_d_a2_a8_proc_0
      + 1595.061528511985 pi_d_a2_a8_proc_1 + 963.938471490341 pi_d_a8_a2_proc_0
      + 1572.241805604142 pi_d_a8_a2_proc_1 + 49.564878406571 pi_d_a2_a9_proc_0
      + 60.080046559692 pi_d_a9_a2_proc_0 + 422.271109840027 pi_d_a2_a10_proc_0
      + 2152.805688456838 pi_d_a2_a10_proc_1
      + 406.194311545488 pi_d_a10_a2_proc_0
      + 2136.728890162299 pi_d_a10_a2_proc_1
      + 139.816890986342 pi_d_a2_a11_proc_0
      + 2421.646875013606 pi_d_a2_a11_proc_1
      + 137.353124988719 pi_d_a11_a2_proc_0
      + 2419.183109015984 pi_d_a11_a2_proc_1
      + 1209.373220444627 pi_d_a2_a12_proc_1
      + 1240.981854596088 pi_d_a12_a2_proc_1
      + 1240.454526425250 pi_d_a2_a13_proc_1
      + 1209.900548615465 pi_d_a13_a2_proc_1
      + 67.035163965378 pi_d_a2_a14_proc_0 + 42.609761000885 pi_d_a14_a2_proc_0
      + 800.001659671823 pi_d_a3_a5_proc_1 + 779.767329380168 pi_d_a5_a3_proc_1
      + 1131.434513103696 pi_d_a3_a7_proc_1
      + 1102.505956287452 pi_d_a7_a3_proc_1 + 366.903584516914 pi_d_a3_a8_proc_1
      + 351.044674563151 pi_d_a8_a3_proc_1 + 932.508667047827 pi_d_a3_a10_proc_1
      + 907.670836535247 pi_d_a10_a3_proc_1
      + 1211.189591344913 pi_d_a3_a11_proc_1
      + 1180.285317648614 pi_d_a11_a3_proc_1 + 0.636556403934 pi_d_a3_a12_proc_1
      + 0.363443600718 pi_d_a12_a3_proc_1 - 3.895640058279 pi_d_a3_a13_proc_1
      + 4.895640062931 pi_d_a13_a3_proc_1 + 497.302986581685 pi_d_a4_a5_proc_0
      + 482.928024373301 pi_d_a5_a4_proc_0 + 5.315506213236 pi_d_a4_a6_proc_0
      - 4.315506208584 pi_d_a6_a4_proc_0 + 166.345204785370 pi_d_a4_a7_proc_0
      + 159.714325830460 pi_d_a7_a4_proc_0 + 936.538922422760 pi_d_a4_a8_proc_0
      + 905.512818504153 pi_d_a8_a4_proc_0 + 0.590019248929 pi_d_a4_a9_proc_0
      + 0.409980755723 pi_d_a9_a4_proc_0 + 376.409843630262 pi_d_a4_a10_proc_0
      + 343.410652793642 pi_d_a10_a4_proc_0 + 87.377997222320 pi_d_a4_a11_proc_0
      + 81.147093791130 pi_d_a11_a4_proc_0 + 16.999992149370 pi_d_a4_a14_proc_0
      - 15.999992144718 pi_d_a14_a4_proc_0 + 496.123295620635 pi_d_a5_a6_proc_0
      + 484.107715334351 pi_d_a6_a5_proc_0 + 649.240950786558 pi_d_a5_a7_proc_0
      + 1902.950409222720 pi_d_a5_a7_proc_1 + 656.049590779606 pi_d_a7_a5_proc_0
      + 1909.759049215768 pi_d_a7_a5_proc_1
      + 1426.669744755043 pi_d_a5_a8_proc_0
      + 1164.386992880121 pi_d_a5_a8_proc_1
      + 1394.613007122204 pi_d_a8_a5_proc_0
      + 1132.330255247282 pi_d_a8_a5_proc_1 + 495.552165758241 pi_d_a5_a9_proc_0
      + 484.678845196745 pi_d_a9_a5_proc_0 + 861.379753349943 pi_d_a5_a10_proc_0
      + 1721.328245978030 pi_d_a5_a10_proc_1
      + 837.671754024295 pi_d_a10_a5_proc_0
      + 1697.620246652383 pi_d_a10_a5_proc_1
      + 574.553901099580 pi_d_a5_a11_proc_0
      + 1985.797799138121 pi_d_a5_a11_proc_1
      + 573.202200864204 pi_d_a11_a5_proc_0
      + 1984.446098902746 pi_d_a11_a5_proc_1
      + 797.940440224615 pi_d_a5_a12_proc_1
      + 781.828548827377 pi_d_a12_a5_proc_1
      + 795.094477805438 pi_d_a5_a13_proc_1
      + 784.674511246553 pi_d_a13_a5_proc_1
      + 506.053002374137 pi_d_a5_a14_proc_0
      + 474.178008580850 pi_d_a14_a5_proc_0 + 161.565112527014 pi_d_a6_a7_proc_0
      + 164.494418088815 pi_d_a7_a6_proc_0 + 916.233378277297 pi_d_a6_a8_proc_0
      + 925.818362649617 pi_d_a8_a6_proc_0 - 4.506603462476 pi_d_a6_a9_proc_0
      + 5.506603467128 pi_d_a9_a6_proc_0 + 366.861277507024 pi_d_a6_a10_proc_0
      + 352.959218916880 pi_d_a10_a6_proc_0 + 85.282319786798 pi_d_a6_a11_proc_0
      + 83.242771226652 pi_d_a11_a6_proc_0 + 12.430774223537 pi_d_a6_a14_proc_0
      - 11.430774218885 pi_d_a14_a6_proc_0 + 1095.600467530931 pi_d_a7_a8_proc_0
      + 1487.489195995166 pi_d_a7_a8_proc_1
      + 1071.510804007159 pi_d_a8_a7_proc_0
      + 1463.399532471394 pi_d_a8_a7_proc_1 + 159.398116748185 pi_d_a7_a9_proc_0
      + 166.661413867644 pi_d_a9_a7_proc_0 + 537.469854951212 pi_d_a7_a10_proc_0
      + 2051.589827918457 pi_d_a7_a10_proc_1
      + 507.410172083869 pi_d_a10_a7_proc_0
      + 2021.530145051113 pi_d_a10_a7_proc_1
      + 243.558228135413 pi_d_a7_a11_proc_0
      + 2308.973606513111 pi_d_a7_a11_proc_1
      + 250.026393489215 pi_d_a11_a7_proc_0
      + 2315.441771866913 pi_d_a11_a7_proc_1
      + 1119.517270228999 pi_d_a7_a12_proc_1
      + 1114.423199162149 pi_d_a12_a7_proc_1
      + 1131.432881746323 pi_d_a7_a13_proc_1
      + 1102.507587644825 pi_d_a13_a7_proc_1
      + 174.306312020721 pi_d_a7_a14_proc_0
      + 151.753218595109 pi_d_a14_a7_proc_0 + 929.008224993579 pi_d_a8_a9_proc_0
      + 913.043515933335 pi_d_a9_a8_proc_0
      + 1296.924391820299 pi_d_a8_a10_proc_0
      + 1295.052154476460 pi_d_a8_a10_proc_1
      + 1263.947845525866 pi_d_a10_a8_proc_0
      + 1262.075608182026 pi_d_a10_a8_proc_1
      + 1014.822581910132 pi_d_a8_a11_proc_0
      + 1564.245749976746 pi_d_a8_a11_proc_1
      + 994.754250025579 pi_d_a11_a8_proc_0
      + 1544.177418092194 pi_d_a11_a8_proc_1
      + 351.670712701204 pi_d_a8_a12_proc_1
      + 366.277546378860 pi_d_a12_a8_proc_1
      + 350.481807700517 pi_d_a8_a13_proc_1
      + 367.466451379548 pi_d_a13_a8_proc_1
      + 933.772931950089 pi_d_a8_a14_proc_0
      + 908.278808976825 pi_d_a14_a8_proc_0
      + 376.409897254317 pi_d_a9_a10_proc_0
      + 343.410599169587 pi_d_a10_a9_proc_0 + 89.914644065304 pi_d_a9_a11_proc_0
      + 78.610446948146 pi_d_a11_a9_proc_0 + 16.999999997072 pi_d_a9_a14_proc_0
      - 15.999999992420 pi_d_a14_a9_proc_0
      + 438.904131352856 pi_d_a10_a11_proc_0
      + 2110.558543922480 pi_d_a10_a11_proc_1
      + 448.441456079846 pi_d_a11_a10_proc_0
      + 2120.095868649470 pi_d_a11_a10_proc_1
      + 914.640556940181 pi_d_a10_a12_proc_1
      + 925.538946642892 pi_d_a12_a10_proc_1
      + 927.646430996521 pi_d_a10_a13_proc_1
      + 912.533072586552 pi_d_a13_a10_proc_1
      + 364.906739876885 pi_d_a10_a14_proc_0
      + 354.913756547019 pi_d_a14_a10_proc_0
      + 1189.209020567853 pi_d_a11_a12_proc_1
      + 1202.265888425674 pi_d_a12_a11_proc_1
      + 1211.061616596072 pi_d_a11_a13_proc_1
      + 1180.413292397456 pi_d_a13_a11_proc_1
      + 96.130831579772 pi_d_a11_a14_proc_0
      + 72.394259433678 pi_d_a14_a11_proc_0 - 4.002285049593 pi_d_a12_a13_proc_1
      + 5.002285054245 pi_d_a13_a12_proc_1 + 0.468952182456 pi_y2_a0_proc_0
      + 0.531047817543 pi_y2_a0_proc_1 + 0.128796055575 pi_y2_a1_proc_0
      + 0.871203944424 pi_y2_a1_proc_1 + 0.957527394463 pi_y2_a2_proc_0
      + 0.042472605536 pi_y2_a2_proc_1 + 0.999999999999 pi_y2_a3_proc_1
      + 0.999999999999 pi_y2_a4_proc_0 + 0.617188815108 pi_y2_a5_proc_0
      + 0.382811184891 pi_y2_a5_proc_1 + 0.999999999999 pi_y2_a6_proc_0
      + 0.872924342997 pi_y2_a7_proc_0 + 0.127075657002 pi_y2_a7_proc_1
      + 0.280276880014 pi_y2_a8_proc_0 + 0.719723119985 pi_y2_a8_proc_1
      + 0.999999999999 pi_y2_a9_proc_0 + 0.718991205465 pi_y2_a10_proc_0
      + 0.281008794535 pi_y2_a10_proc_1 + 0.934509346751 pi_y2_a11_proc_0
      + 0.065490653248 pi_y2_a11_proc_1 + 0.999999999999 pi_y2_a12_proc_1
      + 0.999999999999 pi_y2_a13_proc_1 + 0.999999999999 pi_y2_a14_proc_0
Subject To
 c1: 0.000951474786 pi_nr_a0 + 0.001577287066 pi_nr_a1 + 0.001001001001 pi_nr_a2
     + 0.000781860829 pi_nr_a3 + 0.002000000000 pi_nr_a4
     + 0.000978473581 pi_nr_a5 + 0.001049317943 pi_nr_a6
     + 0.001109877913 pi_nr_a7 + 0.001112347052 pi_nr_a8
     + 0.001169590643 pi_nr_a9 + 0.003164556962 pi_nr_a10
     + 0.002032520325 pi_nr_a11 + 0.001364256480 pi_nr_a12
     + 0.001652892562 pi_nr_a13 + 0.001103752759 pi_nr_a14 + pi_p_a0_a2
     + pi_p_a0_a12 + pi_p_a6_a6 + pi_p_a14_a14 + 2559 pi_d_a0_a1_proc_0
     + pi_d_a0_a1_proc_1 + 2558 pi_d_a1_a0_proc_0 + 1296 pi_d_a0_a2_proc_0
     + 1296 pi_d_a0_a2_proc_1 + 1263 pi_d_a2_a0_proc_0 + 1263 pi_d_a2_a0_proc_1
     + pi_d_a0_a3_proc_1 + 1296 pi_d_a0_a4_proc_0 + 1263 pi_d_a4_a0_proc_0
     + 1296 pi_d_a0_a5_proc_0 + 1296 pi_d_a0_a5_proc_1 + 1263 pi_d_a5_a0_proc_0
     + 1263 pi_d_a5_a0_proc_1 + 1296 pi_d_a0_a6_proc_0 + 1263 pi_d_a6_a0_proc_0
     + 1263 pi_d_a0_a7_proc_0 + 1263 pi_d_a0_a7_proc_1 + 1296 pi_d_a7_a0_proc_0
     + 1296 pi_d_a7_a0_proc_1 + 2559 pi_d_a0_a8_proc_0 + pi_d_a0_a8_proc_1
     + 2558 pi_d_a8_a0_proc_0 + 1296 pi_d_a0_a9_proc_0 + 1263 pi_d_a9_a0_proc_0
     + 1296 pi_d_a0_a10_proc_0 + 1296 pi_d_a0_a10_proc_1
     + 1263 pi_d_a10_a0_proc_0 + 1263 pi_d_a10_a0_proc_1
     + 1296 pi_d_a0_a11_proc_0 + 1296 pi_d_a0_a11_proc_1
     + 1263 pi_d_a11_a0_proc_0 + 1263 pi_d_a11_a0_proc_1 + pi_d_a0_a12_proc_1
     + pi_d_a0_a13_proc_1 + 1263 pi_d_a0_a14_proc_0 + 1296 pi_d_a14_a0_proc_0
     + 1263 pi_d_a1_a2_proc_0 + 1263 pi_d_a1_a2_proc_1 + 1296 pi_d_a2_a1_proc_0
     + 1296 pi_d_a2_a1_proc_1 + pi_d_a1_a3_proc_1 + 1296 pi_d_a1_a4_proc_0
     + 1263 pi_d_a4_a1_proc_0 + 1296 pi_d_a1_a5_proc_0 + 1296 pi_d_a1_a5_proc_1
     + 1263 pi_d_a5_a1_proc_0 + 1263 pi_d_a5_a1_proc_1 + 1296 pi_d_a1_a6_proc_0
     + 1263 pi_d_a6_a1_proc_0 + 1263 pi_d_a1_a7_proc_0 + 1263 pi_d_a1_a7_proc_1
     + 1296 pi_d_a7_a1_proc_0 + 1296 pi_d_a7_a1_proc_1 + 2559 pi_d_a1_a8_proc_0
     + pi_d_a1_a8_proc_1 + 2558 pi_d_a8_a1_proc_0 + 1263 pi_d_a1_a9_proc_0
     + 1296 pi_d_a9_a1_proc_0 + 1296 pi_d_a1_a10_proc_0
     + 1296 pi_d_a1_a10_proc_1 + 1263 pi_d_a10_a1_proc_0
     + 1263 pi_d_a10_a1_proc_1 + 1296 pi_d_a1_a11_proc_0
     + 1296 pi_d_a1_a11_proc_1 + 1263 pi_d_a11_a1_proc_0
     + 1263 pi_d_a11_a1_proc_1 + pi_d_a1_a12_proc_1 + pi_d_a1_a13_proc_1
     + 1296 pi_d_a1_a14_proc_0 + 1263 pi_d_a14_a1_proc_0
     + 1296 pi_d_a2_a3_proc_1 + 1263 pi_d_a3_a2_proc_1 + pi_d_a4_a2_proc_0
     + 2558 pi_d_a2_a5_proc_1 + pi_d_a5_a2_proc_0 + 2559 pi_d_a5_a2_proc_1
     + pi_d_a6_a2_proc_0 + 2558 pi_d_a2_a7_proc_1 + pi_d_a7_a2_proc_0
     + 2559 pi_d_a7_a2_proc_1 + 1296 pi_d_a2_a8_proc_0 + 1296 pi_d_a2_a8_proc_1
     + 1263 pi_d_a8_a2_proc_0 + 1263 pi_d_a8_a2_proc_1 + pi_d_a9_a2_proc_0
     + 17 pi_d_a2_a10_proc_0 + 2575 pi_d_a2_a10_proc_1 - 16 pi_d_a10_a2_proc_0
     + 2542 pi_d_a10_a2_proc_1 + 2558 pi_d_a2_a11_proc_1 + pi_d_a11_a2_proc_0
     + 2559 pi_d_a11_a2_proc_1 + 1263 pi_d_a2_a12_proc_1
     + 1296 pi_d_a12_a2_proc_1 + 1296 pi_d_a2_a13_proc_1
     + 1263 pi_d_a13_a2_proc_1 + 17 pi_d_a2_a14_proc_0 - 16 pi_d_a14_a2_proc_0
     + 1296 pi_d_a3_a5_proc_1 + 1263 pi_d_a5_a3_proc_1 + 1296 pi_d_a3_a7_proc_1
     + 1263 pi_d_a7_a3_proc_1 + pi_d_a3_a8_proc_1 + 1296 pi_d_a3_a10_proc_1
     + 1263 pi_d_a10_a3_proc_1 + 1296 pi_d_a3_a11_proc_1
     + 1263 pi_d_a11_a3_proc_1 + pi_d_a3_a12_proc_1 + pi_d_a13_a3_proc_1
     + pi_d_a4_a5_proc_0 + pi_d_a4_a6_proc_0 + pi_d_a4_a7_proc_0
     + 1296 pi_d_a4_a8_proc_0 + 1263 pi_d_a8_a4_proc_0 + pi_d_a4_a9_proc_0
     + 17 pi_d_a4_a10_proc_0 - 16 pi_d_a10_a4_proc_0 + pi_d_a11_a4_proc_0
     + 17 pi_d_a4_a14_proc_0 - 16 pi_d_a14_a4_proc_0 + pi_d_a6_a5_proc_0
     + 2558 pi_d_a5_a7_proc_1 + pi_d_a7_a5_proc_0 + 2559 pi_d_a7_a5_proc_1
     + 1296 pi_d_a5_a8_proc_0 + 1296 pi_d_a5_a8_proc_1 + 1263 pi_d_a8_a5_proc_0
     + 1263 pi_d_a8_a5_proc_1 + pi_d_a9_a5_proc_0 + 17 pi_d_a5_a10_proc_0
     + 2575 pi_d_a5_a10_proc_1 - 16 pi_d_a10_a5_proc_0 + 2542 pi_d_a10_a5_proc_1
     + 2558 pi_d_a5_a11_proc_1 + pi_d_a11_a5_proc_0 + 2559 pi_d_a11_a5_proc_1
     + 1296 pi_d_a5_a12_proc_1 + 1263 pi_d_a12_a5_proc_1
     + 1296 pi_d_a5_a13_proc_1 + 1263 pi_d_a13_a5_proc_1 + 17 pi_d_a5_a14_proc_0
     - 16 pi_d_a14_a5_proc_0 + pi_d_a7_a6_proc_0 + 1263 pi_d_a6_a8_proc_0
     + 1296 pi_d_a8_a6_proc_0 + pi_d_a9_a6_proc_0 + 17 pi_d_a6_a10_proc_0
     - 16 pi_d_a10_a6_proc_0 + pi_d_a11_a6_proc_0 + 17 pi_d_a6_a14_proc_0
     - 16 pi_d_a14_a6_proc_0 + 1296 pi_d_a7_a8_proc_0 + 1296 pi_d_a7_a8_proc_1
     + 1263 pi_d_a8_a7_proc_0 + 1263 pi_d_a8_a7_proc_1 + pi_d_a9_a7_proc_0
     + 17 pi_d_a7_a10_proc_0 + 2575 pi_d_a7_a10_proc_1 - 16 pi_d_a10_a7_proc_0
     + 2542 pi_d_a10_a7_proc_1 + 2558 pi_d_a7_a11_proc_1 + pi_d_a11_a7_proc_0
     + 2559 pi_d_a11_a7_proc_1 + 1296 pi_d_a7_a12_proc_1
     + 1263 pi_d_a12_a7_proc_1 + 1296 pi_d_a7_a13_proc_1
     + 1263 pi_d_a13_a7_proc_1 + 17 pi_d_a7_a14_proc_0 - 16 pi_d_a14_a7_proc_0
     + 1296 pi_d_a8_a9_proc_0 + 1263 pi_d_a9_a8_proc_0 + 1296 pi_d_a8_a10_proc_0
     + 1296 pi_d_a8_a10_proc_1 + 1263 pi_d_a10_a8_proc_0
     + 1263 pi_d_a10_a8_proc_1 + 1296 pi_d_a8_a11_proc_0
     + 1296 pi_d_a8_a11_proc_1 + 1263 pi_d_a11_a8_proc_0
     + 1263 pi_d_a11_a8_proc_1 + pi_d_a8_a12_proc_1 + pi_d_a13_a8_proc_1
     + 1296 pi_d_a8_a14_proc_0 + 1263 pi_d_a14_a8_proc_0 + 17 pi_d_a9_a10_proc_0
     - 16 pi_d_a10_a9_proc_0 + pi_d_a11_a9_proc_0 + 17 pi_d_a9_a14_proc_0
     - 16 pi_d_a14_a9_proc_0 - 16 pi_d_a10_a11_proc_0 + 2542 pi_d_a10_a11_proc_1
     + 17 pi_d_a11_a10_proc_0 + 2575 pi_d_a11_a10_proc_1
     + 1263 pi_d_a10_a12_proc_1 + 1296 pi_d_a12_a10_proc_1
     + 1296 pi_d_a10_a13_proc_1 + 1263 pi_d_a13_a10_proc_1 + pi_d_a10_a14_proc_0
     + 1263 pi_d_a11_a12_proc_1 + 1296 pi_d_a12_a11_proc_1
     + 1296 pi_d_a11_a13_proc_1 + 1263 pi_d_a13_a11_proc_1
     + 17 pi_d_a11_a14_proc_0 - 16 pi_d_a14_a11_proc_0 + pi_d_a13_a12_proc_1
     + pi_y2_a0_proc_1 + pi_y2_a1_proc_1 + pi_y2_a2_proc_0 + pi_y2_a3_proc_1
     + pi_y2_a4_proc_0 + pi_y2_a5_proc_0 + pi_y2_a6_proc_0 + pi_y2_a7_proc_0
     + pi_y2_a8_proc_1 + pi_y2_a9_proc_0 + pi_y2_a10_proc_0 + pi_y2_a11_proc_0
     + pi_y2_a12_proc_1 + pi_y2_a13_proc_1 + pi_y2_a14_proc_0 = 0.000128452152
 c2: pi_nr_a0 + pi_nr_a1 + pi_nr_a2 + pi_nr_a3 + pi_nr_a4 + pi_nr_a5 + pi_nr_a6
     + pi_nr_a7 + pi_nr_a8 + pi_nr_a9 + pi_nr_a10 + pi_nr_a11 + pi_nr_a12
     + pi_nr_a13 + pi_nr_a14 - pi_y1_a0 - pi_y1_a1 - pi_y1_a2 - pi_y1_a3
     - pi_y1_a4 - pi_y1_a5 - pi_y1_a6 - pi_y1_a7 - pi_y1_a8 - pi_y1_a9
     - pi_y1_a10 - pi_y1_a11 - pi_y1_a12 - pi_y1_a13 - pi_y1_a14 >= 1
 c3: - pi_p_a1_a0 + pi_p_a0_a2 - pi_p_a7_a0 + pi_p_a0_a12 - pi_p_a12_a0
     + pi_d_a0_a1_proc_0 + pi_d_a0_a1_proc_1 - pi_d_a1_a0_proc_0
     - pi_d_a1_a0_proc_1 + pi_d_a0_a2_proc_0 + pi_d_a0_a2_proc_1
     - pi_d_a2_a0_proc_0 - pi_d_a2_a0_proc_1 + pi_d_a0_a3_proc_1
     - pi_d_a3_a0_proc_1 + pi_d_a0_a4_proc_0 - pi_d_a4_a0_proc_0
     + pi_d_a0_a5_proc_0 + pi_d_a0_a5_proc_1 - pi_d_a5_a0_proc_0
     - pi_d_a5_a0_proc_1 + pi_d_a0_a6_proc_0 - pi_d_a6_a0_proc_0
     + pi_d_a0_a7_proc_0 + pi_d_a0_a7_proc_1 - pi_d_a7_a0_proc_0
     - pi_d_a7_a0_proc_1 + pi_d_a0_a8_proc_0 + pi_d_a0_a8_proc_1
     - pi_d_a8_a0_proc_0 - pi_d_a8_a0_proc_1 + pi_d_a0_a9_proc_0
     - pi_d_a9_a0_proc_0 + pi_d_a0_a10_proc_0 + pi_d_a0_a10_proc_1
     - pi_d_a10_a0_proc_0 - pi_d_a10_a0_proc_1 + pi_d_a0_a11_proc_0
     + pi_d_a0_a11_proc_1 - pi_d_a11_a0_proc_0 - pi_d_a11_a0_proc_1
     + pi_d_a0_a12_proc_1 - pi_d_a12_a0_proc_1 + pi_d_a0_a13_proc_1
     - pi_d_a13_a0_proc_1 + pi_d_a0_a14_proc_0 - pi_d_a14_a0_proc_0 >= 0
 c4: 999 pi_p_a0_a2 + 999 pi_p_a0_a12 + 999 pi_d_a0_a1_proc_0
     + 999 pi_d_a0_a2_proc_0 + 999 pi_d_a0_a4_proc_0 + 999 pi_d_a0_a5_proc_0
     + 999 pi_d_a0_a6_proc_0 + 999 pi_d_a0_a7_proc_0 + 999 pi_d_a0_a8_proc_0
     + 999 pi_d_a0_a9_proc_0 + 999 pi_d_a0_a10_proc_0 + 999 pi_d_a0_a11_proc_0
     + 999 pi_d_a0_a14_proc_0 + pi_y1_a0 + pi_y2_a0_proc_0 >= 0
 c5: 1051 pi_p_a0_a2 + 1051 pi_p_a0_a12 + 1051 pi_d_a0_a1_proc_1
     + 1051 pi_d_a0_a2_proc_1 + 1051 pi_d_a0_a3_proc_1 + 1051 pi_d_a0_a5_proc_1
     + 1051 pi_d_a0_a7_proc_1 + 1051 pi_d_a0_a8_proc_1 + 1051 pi_d_a0_a10_proc_1
     + 1051 pi_d_a0_a11_proc_1 + 1051 pi_d_a0_a12_proc_1
     + 1051 pi_d_a0_a13_proc_1 + pi_y1_a0 + pi_y2_a0_proc_1 >= 0
 c6: pi_p_a1_a0 - pi_p_a3_a1 - pi_p_a11_a1 - pi_d_a0_a1_proc_0
     - pi_d_a0_a1_proc_1 + pi_d_a1_a0_proc_0 + pi_d_a1_a0_proc_1
     + pi_d_a1_a2_proc_0 + pi_d_a1_a2_proc_1 - pi_d_a2_a1_proc_0
     - pi_d_a2_a1_proc_1 + pi_d_a1_a3_proc_1 - pi_d_a3_a1_proc_1
     + pi_d_a1_a4_proc_0 - pi_d_a4_a1_proc_0 + pi_d_a1_a5_proc_0
     + pi_d_a1_a5_proc_1 - pi_d_a5_a1_proc_0 - pi_d_a5_a1_proc_1
     + pi_d_a1_a6_proc_0 - pi_d_a6_a1_proc_0 + pi_d_a1_a7_proc_0
     + pi_d_a1_a7_proc_1 - pi_d_a7_a1_proc_0 - pi_d_a7_a1_proc_1
     + pi_d_a1_a8_proc_0 + pi_d_a1_a8_proc_1 - pi_d_a8_a1_proc_0
     - pi_d_a8_a1_proc_1 + pi_d_a1_a9_proc_0 - pi_d_a9_a1_proc_0
     + pi_d_a1_a10_proc_0 + pi_d_a1_a10_proc_1 - pi_d_a10_a1_proc_0
     - pi_d_a10_a1_proc_1 + pi_d_a1_a11_proc_0 + pi_d_a1_a11_proc_1
     - pi_d_a11_a1_proc_0 - pi_d_a11_a1_proc_1 + pi_d_a1_a12_proc_1
     - pi_d_a12_a1_proc_1 + pi_d_a1_a13_proc_1 - pi_d_a13_a1_proc_1
     + pi_d_a1_a14_proc_0 - pi_d_a14_a1_proc_0 >= 0
 c7: 992 pi_p_a1_a0 + 992 pi_d_a1_a0_proc_0 + 992 pi_d_a1_a2_proc_0
     + 992 pi_d_a1_a4_proc_0 + 992 pi_d_a1_a5_proc_0 + 992 pi_d_a1_a6_proc_0
     + 992 pi_d_a1_a7_proc_0 + 992 pi_d_a1_a8_proc_0 + 992 pi_d_a1_a9_proc_0
     + 992 pi_d_a1_a10_proc_0 + 992 pi_d_a1_a11_proc_0 + 992 pi_d_a1_a14_proc_0
     + pi_y1_a1 + pi_y2_a1_proc_0 >= 0
 c8: 634 pi_p_a1_a0 + 634 pi_d_a1_a0_proc_1 + 634 pi_d_a1_a2_proc_1
     + 634 pi_d_a1_a3_proc_1 + 634 pi_d_a1_a5_proc_1 + 634 pi_d_a1_a7_proc_1
     + 634 pi_d_a1_a8_proc_1 + 634 pi_d_a1_a10_proc_1 + 634 pi_d_a1_a11_proc_1
     + 634 pi_d_a1_a12_proc_1 + 634 pi_d_a1_a13_proc_1 + pi_y1_a1
     + pi_y2_a1_proc_1 >= 0
 c9: - pi_p_a0_a2 + pi_p_a2_a4 + pi_p_a2_a5 + pi_p_a2_a11 - pi_d_a0_a2_proc_0
     - pi_d_a0_a2_proc_1 + pi_d_a2_a0_proc_0 + pi_d_a2_a0_proc_1
     - pi_d_a1_a2_proc_0 - pi_d_a1_a2_proc_1 + pi_d_a2_a1_proc_0
     + pi_d_a2_a1_proc_1 + pi_d_a2_a3_proc_1 - pi_d_a3_a2_proc_1
     + pi_d_a2_a4_proc_0 - pi_d_a4_a2_proc_0 + pi_d_a2_a5_proc_0
     + pi_d_a2_a5_proc_1 - pi_d_a5_a2_proc_0 - pi_d_a5_a2_proc_1
     + pi_d_a2_a6_proc_0 - pi_d_a6_a2_proc_0 + pi_d_a2_a7_proc_0
     + pi_d_a2_a7_proc_1 - pi_d_a7_a2_proc_0 - pi_d_a7_a2_proc_1
     + pi_d_a2_a8_proc_0 + pi_d_a2_a8_proc_1 - pi_d_a8_a2_proc_0
     - pi_d_a8_a2_proc_1 + pi_d_a2_a9_proc_0 - pi_d_a9_a2_proc_0
     + pi_d_a2_a10_proc_0 + pi_d_a2_a10_proc_1 - pi_d_a10_a2_proc_0
     - pi_d_a10_a2_proc_1 + pi_d_a2_a11_proc_0 + pi_d_a2_a11_proc_1
     - pi_d_a11_a2_proc_0 - pi_d_a11_a2_proc_1 + pi_d_a2_a12_proc_1
     - pi_d_a12_a2_proc_1 + pi_d_a2_a13_proc_1 - pi_d_a13_a2_proc_1
     + pi_d_a2_a14_proc_0 - pi_d_a14_a2_proc_0 >= 0
 c10: 999 pi_p_a2_a4 + 999 pi_p_a2_a5 + 999 pi_p_a2_a11 + 999 pi_d_a2_a0_proc_0
      + 999 pi_d_a2_a1_proc_0 + 999 pi_d_a2_a4_proc_0 + 999 pi_d_a2_a5_proc_0
      + 999 pi_d_a2_a6_proc_0 + 999 pi_d_a2_a7_proc_0 + 999 pi_d_a2_a8_proc_0
      + 999 pi_d_a2_a9_proc_0 + 999 pi_d_a2_a10_proc_0 + 999 pi_d_a2_a11_proc_0
      + 999 pi_d_a2_a14_proc_0 + pi_y1_a2 + pi_y2_a2_proc_0 >= 0
 c11: 1108 pi_p_a2_a4 + 1108 pi_p_a2_a5 + 1108 pi_p_a2_a11
      + 1108 pi_d_a2_a0_proc_1 + 1108 pi_d_a2_a1_proc_1 + 1108 pi_d_a2_a3_proc_1
      + 1108 pi_d_a2_a5_proc_1 + 1108 pi_d_a2_a7_proc_1 + 1108 pi_d_a2_a8_proc_1
      + 1108 pi_d_a2_a10_proc_1 + 1108 pi_d_a2_a11_proc_1
      + 1108 pi_d_a2_a12_proc_1 + 1108 pi_d_a2_a13_proc_1 + pi_y1_a2
      + pi_y2_a2_proc_1 >= 0
 c12: pi_p_a3_a1 - pi_p_a6_a3 + pi_p_a3_a9 - pi_d_a0_a3_proc_1
      + pi_d_a3_a0_proc_1 - pi_d_a1_a3_proc_1 + pi_d_a3_a1_proc_1
      - pi_d_a2_a3_proc_1 + pi_d_a3_a2_proc_1 + pi_d_a3_a5_proc_1
      - pi_d_a5_a3_proc_1 + pi_d_a3_a7_proc_1 - pi_d_a7_a3_proc_1
      + pi_d_a3_a8_proc_1 - pi_d_a8_a3_proc_1 + pi_d_a3_a10_proc_1
      - pi_d_a10_a3_proc_1 + pi_d_a3_a11_proc_1 - pi_d_a11_a3_proc_1
      + pi_d_a3_a12_proc_1 - pi_d_a12_a3_proc_1 + pi_d_a3_a13_proc_1
      - pi_d_a13_a3_proc_1 >= 0
 c13: 1279 pi_p_a3_a1 + 1279 pi_p_a3_a9 + 1279 pi_d_a3_a0_proc_1
      + 1279 pi_d_a3_a1_proc_1 + 1279 pi_d_a3_a2_proc_1 + 1279 pi_d_a3_a5_proc_1
      + 1279 pi_d_a3_a7_proc_1 + 1279 pi_d_a3_a8_proc_1
      + 1279 pi_d_a3_a10_proc_1 + 1279 pi_d_a3_a11_proc_1
      + 1279 pi_d_a3_a12_proc_1 + 1279 pi_d_a3_a13_proc_1 + pi_y1_a3
      + pi_y2_a3_proc_1 >= 0
 c14: - pi_p_a2_a4 - pi_p_a13_a4 - pi_d_a0_a4_proc_0 + pi_d_a4_a0_proc_0
      - pi_d_a1_a4_proc_0 + pi_d_a4_a1_proc_0 - pi_d_a2_a4_proc_0
      + pi_d_a4_a2_proc_0 + pi_d_a4_a5_proc_0 - pi_d_a5_a4_proc_0
      + pi_d_a4_a6_proc_0 - pi_d_a6_a4_proc_0 + pi_d_a4_a7_proc_0
      - pi_d_a7_a4_proc_0 + pi_d_a4_a8_proc_0 - pi_d_a8_a4_proc_0
      + pi_d_a4_a9_proc_0 - pi_d_a9_a4_proc_0 + pi_d_a4_a10_proc_0
      - pi_d_a10_a4_proc_0 + pi_d_a4_a11_proc_0 - pi_d_a11_a4_proc_0
      + pi_d_a4_a14_proc_0 - pi_d_a14_a4_proc_0 >= 0
 c15: 500 pi_d_a4_a0_proc_0 + 500 pi_d_a4_a1_proc_0 + 500 pi_d_a4_a2_proc_0
      + 500 pi_d_a4_a5_proc_0 + 500 pi_d_a4_a6_proc_0 + 500 pi_d_a4_a7_proc_0
      + 500 pi_d_a4_a8_proc_0 + 500 pi_d_a4_a9_proc_0 + 500 pi_d_a4_a10_proc_0
      + 500 pi_d_a4_a11_proc_0 + 500 pi_d_a4_a14_proc_0 + pi_y1_a4
      + pi_y2_a4_proc_0 >= 0
 c16: - pi_p_a2_a5 + pi_p_a5_a6 + pi_p_a5_a13 - pi_d_a0_a5_proc_0
      - pi_d_a0_a5_proc_1 + pi_d_a5_a0_proc_0 + pi_d_a5_a0_proc_1
      - pi_d_a1_a5_proc_0 - pi_d_a1_a5_proc_1 + pi_d_a5_a1_proc_0
      + pi_d_a5_a1_proc_1 - pi_d_a2_a5_proc_0 - pi_d_a2_a5_proc_1
      + pi_d_a5_a2_proc_0 + pi_d_a5_a2_proc_1 - pi_d_a3_a5_proc_1
      + pi_d_a5_a3_proc_1 - pi_d_a4_a5_proc_0 + pi_d_a5_a4_proc_0
      + pi_d_a5_a6_proc_0 - pi_d_a6_a5_proc_0 + pi_d_a5_a7_proc_0
      + pi_d_a5_a7_proc_1 - pi_d_a7_a5_proc_0 - pi_d_a7_a5_proc_1
      + pi_d_a5_a8_proc_0 + pi_d_a5_a8_proc_1 - pi_d_a8_a5_proc_0
      - pi_d_a8_a5_proc_1 + pi_d_a5_a9_proc_0 - pi_d_a9_a5_proc_0
      + pi_d_a5_a10_proc_0 + pi_d_a5_a10_proc_1 - pi_d_a10_a5_proc_0
      - pi_d_a10_a5_proc_1 + pi_d_a5_a11_proc_0 + pi_d_a5_a11_proc_1
      - pi_d_a11_a5_proc_0 - pi_d_a11_a5_proc_1 + pi_d_a5_a12_proc_1
      - pi_d_a12_a5_proc_1 + pi_d_a5_a13_proc_1 - pi_d_a13_a5_proc_1
      + pi_d_a5_a14_proc_0 - pi_d_a14_a5_proc_0 >= 0
 c17: 1022 pi_p_a5_a6 + 1022 pi_p_a5_a13 + 1022 pi_d_a5_a0_proc_0
      + 1022 pi_d_a5_a1_proc_0 + 1022 pi_d_a5_a2_proc_0 + 1022 pi_d_a5_a4_proc_0
      + 1022 pi_d_a5_a6_proc_0 + 1022 pi_d_a5_a7_proc_0 + 1022 pi_d_a5_a8_proc_0
      + 1022 pi_d_a5_a9_proc_0 + 1022 pi_d_a5_a10_proc_0
      + 1022 pi_d_a5_a11_proc_0 + 1022 pi_d_a5_a14_proc_0 + pi_y1_a5
      + pi_y2_a5_proc_0 >= 0
 c18: 506 pi_p_a5_a6 + 506 pi_p_a5_a13 + 506 pi_d_a5_a0_proc_1
      + 506 pi_d_a5_a1_proc_1 + 506 pi_d_a5_a2_proc_1 + 506 pi_d_a5_a3_proc_1
      + 506 pi_d_a5_a7_proc_1 + 506 pi_d_a5_a8_proc_1 + 506 pi_d_a5_a10_proc_1
      + 506 pi_d_a5_a11_proc_1 + 506 pi_d_a5_a12_proc_1 + 506 pi_d_a5_a13_proc_1
      + pi_y1_a5 + pi_y2_a5_proc_1 >= 0
 c19: pi_p_a6_a3 - pi_p_a5_a6 + pi_p_a6_a9 - pi_d_a0_a6_proc_0
      + pi_d_a6_a0_proc_0 - pi_d_a1_a6_proc_0 + pi_d_a6_a1_proc_0
      - pi_d_a2_a6_proc_0 + pi_d_a6_a2_proc_0 - pi_d_a4_a6_proc_0
      + pi_d_a6_a4_proc_0 - pi_d_a5_a6_proc_0 + pi_d_a6_a5_proc_0
      + pi_d_a6_a7_proc_0 - pi_d_a7_a6_proc_0 + pi_d_a6_a8_proc_0
      - pi_d_a8_a6_proc_0 + pi_d_a6_a9_proc_0 - pi_d_a9_a6_proc_0
      + pi_d_a6_a10_proc_0 - pi_d_a10_a6_proc_0 + pi_d_a6_a11_proc_0
      - pi_d_a11_a6_proc_0 + pi_d_a6_a14_proc_0 - pi_d_a14_a6_proc_0 >= 0
 c20: 953 pi_p_a6_a3 + 953 pi_p_a6_a9 + 953 pi_p_a6_a6 + 953 pi_d_a6_a0_proc_0
      + 953 pi_d_a6_a1_proc_0 + 953 pi_d_a6_a2_proc_0 + 953 pi_d_a6_a4_proc_0
      + 953 pi_d_a6_a5_proc_0 + 953 pi_d_a6_a7_proc_0 + 953 pi_d_a6_a8_proc_0
      + 953 pi_d_a6_a9_proc_0 + 953 pi_d_a6_a10_proc_0 + 953 pi_d_a6_a11_proc_0
      + 953 pi_d_a6_a14_proc_0 + pi_y1_a6 + pi_y2_a6_proc_0 >= 0
 c21: pi_p_a7_a0 - pi_p_a8_a7 - pi_p_a14_a7 + pi_p_a7_a9 - pi_d_a0_a7_proc_0
      - pi_d_a0_a7_proc_1 + pi_d_a7_a0_proc_0 + pi_d_a7_a0_proc_1
      - pi_d_a1_a7_proc_0 - pi_d_a1_a7_proc_1 + pi_d_a7_a1_proc_0
      + pi_d_a7_a1_proc_1 - pi_d_a2_a7_proc_0 - pi_d_a2_a7_proc_1
      + pi_d_a7_a2_proc_0 + pi_d_a7_a2_proc_1 - pi_d_a3_a7_proc_1
      + pi_d_a7_a3_proc_1 - pi_d_a4_a7_proc_0 + pi_d_a7_a4_proc_0
      - pi_d_a5_a7_proc_0 - pi_d_a5_a7_proc_1 + pi_d_a7_a5_proc_0
      + pi_d_a7_a5_proc_1 - pi_d_a6_a7_proc_0 + pi_d_a7_a6_proc_0
      + pi_d_a7_a8_proc_0 + pi_d_a7_a8_proc_1 - pi_d_a8_a7_proc_0
      - pi_d_a8_a7_proc_1 + pi_d_a7_a9_proc_0 - pi_d_a9_a7_proc_0
      + pi_d_a7_a10_proc_0 + pi_d_a7_a10_proc_1 - pi_d_a10_a7_proc_0
      - pi_d_a10_a7_proc_1 + pi_d_a7_a11_proc_0 + pi_d_a7_a11_proc_1
      - pi_d_a11_a7_proc_0 - pi_d_a11_a7_proc_1 + pi_d_a7_a12_proc_1
      - pi_d_a12_a7_proc_1 + pi_d_a7_a13_proc_1 - pi_d_a13_a7_proc_1
      + pi_d_a7_a14_proc_0 - pi_d_a14_a7_proc_0 >= 0
 c22: 901 pi_p_a7_a0 + 901 pi_p_a7_a9 + 901 pi_d_a7_a0_proc_0
      + 901 pi_d_a7_a1_proc_0 + 901 pi_d_a7_a2_proc_0 + 901 pi_d_a7_a4_proc_0
      + 901 pi_d_a7_a5_proc_0 + 901 pi_d_a7_a6_proc_0 + 901 pi_d_a7_a8_proc_0
      + 901 pi_d_a7_a9_proc_0 + 901 pi_d_a7_a10_proc_0 + 901 pi_d_a7_a11_proc_0
      + 901 pi_d_a7_a14_proc_0 + pi_y1_a7 + pi_y2_a7_proc_0 >= 0
 c23: 947 pi_p_a7_a0 + 947 pi_p_a7_a9 + 947 pi_d_a7_a0_proc_1
      + 947 pi_d_a7_a1_proc_1 + 947 pi_d_a7_a2_proc_1 + 947 pi_d_a7_a3_proc_1
      + 947 pi_d_a7_a5_proc_1 + 947 pi_d_a7_a8_proc_1 + 947 pi_d_a7_a10_proc_1
      + 947 pi_d_a7_a11_proc_1 + 947 pi_d_a7_a12_proc_1 + 947 pi_d_a7_a13_proc_1
      + pi_y1_a7 + pi_y2_a7_proc_1 >= 0
 c24: pi_p_a8_a7 - pi_p_a10_a8 - pi_d_a0_a8_proc_0 - pi_d_a0_a8_proc_1
      + pi_d_a8_a0_proc_0 + pi_d_a8_a0_proc_1 - pi_d_a1_a8_proc_0
      - pi_d_a1_a8_proc_1 + pi_d_a8_a1_proc_0 + pi_d_a8_a1_proc_1
      - pi_d_a2_a8_proc_0 - pi_d_a2_a8_proc_1 + pi_d_a8_a2_proc_0
      + pi_d_a8_a2_proc_1 - pi_d_a3_a8_proc_1 + pi_d_a8_a3_proc_1
      - pi_d_a4_a8_proc_0 + pi_d_a8_a4_proc_0 - pi_d_a5_a8_proc_0
      - pi_d_a5_a8_proc_1 + pi_d_a8_a5_proc_0 + pi_d_a8_a5_proc_1
      - pi_d_a6_a8_proc_0 + pi_d_a8_a6_proc_0 - pi_d_a7_a8_proc_0
      - pi_d_a7_a8_proc_1 + pi_d_a8_a7_proc_0 + pi_d_a8_a7_proc_1
      + pi_d_a8_a9_proc_0 - pi_d_a9_a8_proc_0 + pi_d_a8_a10_proc_0
      + pi_d_a8_a10_proc_1 - pi_d_a10_a8_proc_0 - pi_d_a10_a8_proc_1
      + pi_d_a8_a11_proc_0 + pi_d_a8_a11_proc_1 - pi_d_a11_a8_proc_0
      - pi_d_a11_a8_proc_1 + pi_d_a8_a12_proc_1 - pi_d_a12_a8_proc_1
      + pi_d_a8_a13_proc_1 - pi_d_a13_a8_proc_1 + pi_d_a8_a14_proc_0
      - pi_d_a14_a8_proc_0 >= 0
 c25: 1090 pi_p_a8_a7 + 1090 pi_d_a8_a0_proc_0 + 1090 pi_d_a8_a1_proc_0
      + 1090 pi_d_a8_a2_proc_0 + 1090 pi_d_a8_a4_proc_0 + 1090 pi_d_a8_a5_proc_0
      + 1090 pi_d_a8_a6_proc_0 + 1090 pi_d_a8_a7_proc_0 + 1090 pi_d_a8_a9_proc_0
      + 1090 pi_d_a8_a10_proc_0 + 1090 pi_d_a8_a11_proc_0
      + 1090 pi_d_a8_a14_proc_0 + pi_y1_a8 + pi_y2_a8_proc_0 >= 0
 c26: 899 pi_p_a8_a7 + 899 pi_d_a8_a0_proc_1 + 899 pi_d_a8_a1_proc_1
      + 899 pi_d_a8_a2_proc_1 + 899 pi_d_a8_a3_proc_1 + 899 pi_d_a8_a5_proc_1
      + 899 pi_d_a8_a7_proc_1 + 899 pi_d_a8_a10_proc_1 + 899 pi_d_a8_a11_proc_1
      + 899 pi_d_a8_a12_proc_1 + 899 pi_d_a8_a13_proc_1 + pi_y1_a8
      + pi_y2_a8_proc_1 >= 0
 c27: - pi_p_a3_a9 - pi_p_a6_a9 - pi_p_a7_a9 - pi_d_a0_a9_proc_0
      + pi_d_a9_a0_proc_0 - pi_d_a1_a9_proc_0 + pi_d_a9_a1_proc_0
      - pi_d_a2_a9_proc_0 + pi_d_a9_a2_proc_0 - pi_d_a4_a9_proc_0
      + pi_d_a9_a4_proc_0 - pi_d_a5_a9_proc_0 + pi_d_a9_a5_proc_0
      - pi_d_a6_a9_proc_0 + pi_d_a9_a6_proc_0 - pi_d_a7_a9_proc_0
      + pi_d_a9_a7_proc_0 - pi_d_a8_a9_proc_0 + pi_d_a9_a8_proc_0
      + pi_d_a9_a10_proc_0 - pi_d_a10_a9_proc_0 + pi_d_a9_a11_proc_0
      - pi_d_a11_a9_proc_0 + pi_d_a9_a14_proc_0 - pi_d_a14_a9_proc_0 >= 0
 c28: 855 pi_d_a9_a0_proc_0 + 855 pi_d_a9_a1_proc_0 + 855 pi_d_a9_a2_proc_0
      + 855 pi_d_a9_a4_proc_0 + 855 pi_d_a9_a5_proc_0 + 855 pi_d_a9_a6_proc_0
      + 855 pi_d_a9_a7_proc_0 + 855 pi_d_a9_a8_proc_0 + 855 pi_d_a9_a10_proc_0
      + 855 pi_d_a9_a11_proc_0 + 855 pi_d_a9_a14_proc_0 + pi_y1_a9
      + pi_y2_a9_proc_0 >= 0
 c29: pi_p_a10_a8 - pi_p_a14_a10 + pi_p_a10_a11 - pi_d_a0_a10_proc_0
      - pi_d_a0_a10_proc_1 + pi_d_a10_a0_proc_0 + pi_d_a10_a0_proc_1
      - pi_d_a1_a10_proc_0 - pi_d_a1_a10_proc_1 + pi_d_a10_a1_proc_0
      + pi_d_a10_a1_proc_1 - pi_d_a2_a10_proc_0 - pi_d_a2_a10_proc_1
      + pi_d_a10_a2_proc_0 + pi_d_a10_a2_proc_1 - pi_d_a3_a10_proc_1
      + pi_d_a10_a3_proc_1 - pi_d_a4_a10_proc_0 + pi_d_a10_a4_proc_0
      - pi_d_a5_a10_proc_0 - pi_d_a5_a10_proc_1 + pi_d_a10_a5_proc_0
      + pi_d_a10_a5_proc_1 - pi_d_a6_a10_proc_0 + pi_d_a10_a6_proc_0
      - pi_d_a7_a10_proc_0 - pi_d_a7_a10_proc_1 + pi_d_a10_a7_proc_0
      + pi_d_a10_a7_proc_1 - pi_d_a8_a10_proc_0 - pi_d_a8_a10_proc_1
      + pi_d_a10_a8_proc_0 + pi_d_a10_a8_proc_1 - pi_d_a9_a10_proc_0
      + pi_d_a10_a9_proc_0 + pi_d_a10_a11_proc_0 + pi_d_a10_a11_proc_1
      - pi_d_a11_a10_proc_0 - pi_d_a11_a10_proc_1 + pi_d_a10_a12_proc_1
      - pi_d_a12_a10_proc_1 + pi_d_a10_a13_proc_1 - pi_d_a13_a10_proc_1
      + pi_d_a10_a14_proc_0 - pi_d_a14_a10_proc_0 >= 0
 c30: 316 pi_p_a10_a8 + 316 pi_p_a10_a11 + 316 pi_d_a10_a0_proc_0
      + 316 pi_d_a10_a1_proc_0 + 316 pi_d_a10_a2_proc_0 + 316 pi_d_a10_a4_proc_0
      + 316 pi_d_a10_a5_proc_0 + 316 pi_d_a10_a6_proc_0 + 316 pi_d_a10_a7_proc_0
      + 316 pi_d_a10_a8_proc_0 + 316 pi_d_a10_a9_proc_0
      + 316 pi_d_a10_a11_proc_0 + 316 pi_d_a10_a14_proc_0 + pi_y1_a10
      + pi_y2_a10_proc_0 >= 0
 c31: 1191 pi_p_a10_a8 + 1191 pi_p_a10_a11 + 1191 pi_d_a10_a0_proc_1
      + 1191 pi_d_a10_a1_proc_1 + 1191 pi_d_a10_a2_proc_1
      + 1191 pi_d_a10_a3_proc_1 + 1191 pi_d_a10_a5_proc_1
      + 1191 pi_d_a10_a7_proc_1 + 1191 pi_d_a10_a8_proc_1
      + 1191 pi_d_a10_a11_proc_1 + 1191 pi_d_a10_a12_proc_1
      + 1191 pi_d_a10_a13_proc_1 + pi_y1_a10 + pi_y2_a10_proc_1 >= 0
 c32: - pi_p_a2_a11 - pi_p_a10_a11 + pi_p_a11_a1 - pi_d_a0_a11_proc_0
      - pi_d_a0_a11_proc_1 + pi_d_a11_a0_proc_0 + pi_d_a11_a0_proc_1
      - pi_d_a1_a11_proc_0 - pi_d_a1_a11_proc_1 + pi_d_a11_a1_proc_0
      + pi_d_a11_a1_proc_1 - pi_d_a2_a11_proc_0 - pi_d_a2_a11_proc_1
      + pi_d_a11_a2_proc_0 + pi_d_a11_a2_proc_1 - pi_d_a3_a11_proc_1
      + pi_d_a11_a3_proc_1 - pi_d_a4_a11_proc_0 + pi_d_a11_a4_proc_0
      - pi_d_a5_a11_proc_0 - pi_d_a5_a11_proc_1 + pi_d_a11_a5_proc_0
      + pi_d_a11_a5_proc_1 - pi_d_a6_a11_proc_0 + pi_d_a11_a6_proc_0
      - pi_d_a7_a11_proc_0 - pi_d_a7_a11_proc_1 + pi_d_a11_a7_proc_0
      + pi_d_a11_a7_proc_1 - pi_d_a8_a11_proc_0 - pi_d_a8_a11_proc_1
      + pi_d_a11_a8_proc_0 + pi_d_a11_a8_proc_1 - pi_d_a9_a11_proc_0
      + pi_d_a11_a9_proc_0 - pi_d_a10_a11_proc_0 - pi_d_a10_a11_proc_1
      + pi_d_a11_a10_proc_0 + pi_d_a11_a10_proc_1 + pi_d_a11_a12_proc_1
      - pi_d_a12_a11_proc_1 + pi_d_a11_a13_proc_1 - pi_d_a13_a11_proc_1
      + pi_d_a11_a14_proc_0 - pi_d_a14_a11_proc_0 >= 0
 c33: 492 pi_p_a11_a1 + 492 pi_d_a11_a0_proc_0 + 492 pi_d_a11_a1_proc_0
      + 492 pi_d_a11_a2_proc_0 + 492 pi_d_a11_a4_proc_0 + 492 pi_d_a11_a5_proc_0
      + 492 pi_d_a11_a6_proc_0 + 492 pi_d_a11_a7_proc_0 + 492 pi_d_a11_a8_proc_0
      + 492 pi_d_a11_a9_proc_0 + 492 pi_d_a11_a10_proc_0
      + 492 pi_d_a11_a14_proc_0 + pi_y1_a11 + pi_y2_a11_proc_0 >= 0
 c34: 593 pi_p_a11_a1 + 593 pi_d_a11_a0_proc_1 + 593 pi_d_a11_a1_proc_1
      + 593 pi_d_a11_a2_proc_1 + 593 pi_d_a11_a3_proc_1 + 593 pi_d_a11_a5_proc_1
      + 593 pi_d_a11_a7_proc_1 + 593 pi_d_a11_a8_proc_1
      + 593 pi_d_a11_a10_proc_1 + 593 pi_d_a11_a12_proc_1
      + 593 pi_d_a11_a13_proc_1 + pi_y1_a11 + pi_y2_a11_proc_1 >= 0
 c35: - pi_p_a0_a12 + pi_p_a12_a0 - pi_d_a0_a12_proc_1 + pi_d_a12_a0_proc_1
      - pi_d_a1_a12_proc_1 + pi_d_a12_a1_proc_1 - pi_d_a2_a12_proc_1
      + pi_d_a12_a2_proc_1 - pi_d_a3_a12_proc_1 + pi_d_a12_a3_proc_1
      - pi_d_a5_a12_proc_1 + pi_d_a12_a5_proc_1 - pi_d_a7_a12_proc_1
      + pi_d_a12_a7_proc_1 - pi_d_a8_a12_proc_1 + pi_d_a12_a8_proc_1
      - pi_d_a10_a12_proc_1 + pi_d_a12_a10_proc_1 - pi_d_a11_a12_proc_1
      + pi_d_a12_a11_proc_1 + pi_d_a12_a13_proc_1 - pi_d_a13_a12_proc_1 >= 0
 c36: 733 pi_p_a12_a0 + 733 pi_d_a12_a0_proc_1 + 733 pi_d_a12_a1_proc_1
      + 733 pi_d_a12_a2_proc_1 + 733 pi_d_a12_a3_proc_1 + 733 pi_d_a12_a5_proc_1
      + 733 pi_d_a12_a7_proc_1 + 733 pi_d_a12_a8_proc_1
      + 733 pi_d_a12_a10_proc_1 + 733 pi_d_a12_a11_proc_1
      + 733 pi_d_a12_a13_proc_1 + pi_y1_a12 + pi_y2_a12_proc_1 >= 0
 c37: pi_p_a13_a4 - pi_p_a5_a13 - pi_d_a0_a13_proc_1 + pi_d_a13_a0_proc_1
      - pi_d_a1_a13_proc_1 + pi_d_a13_a1_proc_1 - pi_d_a2_a13_proc_1
      + pi_d_a13_a2_proc_1 - pi_d_a3_a13_proc_1 + pi_d_a13_a3_proc_1
      - pi_d_a5_a13_proc_1 + pi_d_a13_a5_proc_1 - pi_d_a7_a13_proc_1
      + pi_d_a13_a7_proc_1 - pi_d_a8_a13_proc_1 + pi_d_a13_a8_proc_1
      - pi_d_a10_a13_proc_1 + pi_d_a13_a10_proc_1 - pi_d_a11_a13_proc_1
      + pi_d_a13_a11_proc_1 - pi_d_a12_a13_proc_1 + pi_d_a13_a12_proc_1 >= 0
 c38: 605 pi_p_a13_a4 + 605 pi_d_a13_a0_proc_1 + 605 pi_d_a13_a1_proc_1
      + 605 pi_d_a13_a2_proc_1 + 605 pi_d_a13_a3_proc_1 + 605 pi_d_a13_a5_proc_1
      + 605 pi_d_a13_a7_proc_1 + 605 pi_d_a13_a8_proc_1
      + 605 pi_d_a13_a10_proc_1 + 605 pi_d_a13_a11_proc_1
      + 605 pi_d_a13_a12_proc_1 + pi_y1_a13 + pi_y2_a13_proc_1 >= 0
 c39: pi_p_a14_a10 + pi_p_a14_a7 - pi_d_a0_a14_proc_0 + pi_d_a14_a0_proc_0
      - pi_d_a1_a14_proc_0 + pi_d_a14_a1_proc_0 - pi_d_a2_a14_proc_0
      + pi_d_a14_a2_proc_0 - pi_d_a4_a14_proc_0 + pi_d_a14_a4_proc_0
      - pi_d_a5_a14_proc_0 + pi_d_a14_a5_proc_0 - pi_d_a6_a14_proc_0
      + pi_d_a14_a6_proc_0 - pi_d_a7_a14_proc_0 + pi_d_a14_a7_proc_0
      - pi_d_a8_a14_proc_0 + pi_d_a14_a8_proc_0 - pi_d_a9_a14_proc_0
      + pi_d_a14_a9_proc_0 - pi_d_a10_a14_proc_0 + pi_d_a14_a10_proc_0
      - pi_d_a11_a14_proc_0 + pi_d_a14_a11_proc_0 >= 0
 c40: 906 pi_p_a14_a10 + 906 pi_p_a14_a7 + 906 pi_p_a14_a14
      + 906 pi_d_a14_a0_proc_0 + 906 pi_d_a14_a1_proc_0 + 906 pi_d_a14_a2_proc_0
      + 906 pi_d_a14_a4_proc_0 + 906 pi_d_a14_a5_proc_0 + 906 pi_d_a14_a6_proc_0
      + 906 pi_d_a14_a7_proc_0 + 906 pi_d_a14_a8_proc_0 + 906 pi_d_a14_a9_proc_0
      + 906 pi_d_a14_a10_proc_0 + 906 pi_d_a14_a11_proc_0 + pi_y1_a14
      + pi_y2_a14_proc_0 >= 0

Bounds
       pi_y1_a0 Free
       pi_y1_a1 Free
       pi_y1_a2 Free
       pi_y1_a3 Free
       pi_y1_a4 Free
       pi_y1_a5 Free
       pi_y1_a6 Free
       pi_y1_a7 Free
       pi_y1_a8 Free
       pi_y1_a9 Free
       pi_y1_a10 Free
       pi_y1_a11 Free
       pi_y1_a12 Free
       pi_y1_a13 Free
       pi_y1_a14 Free
End
