benchmark/results/graph__15-1000-0.10-02_12/graph__15-1000-0.10-02_12_QuintonOs_Benders_aux.txt
solution for: Quinton Bounded Benders_auxiliary_sub
objective: 0.0399106
status: OPTIMAL_SOLUTION(2)
pi_p_a1_a0=0.000
pi_p_a0_a2=0.000
pi_p_a2_a5=0.000
pi_p_a6_a3=0.000
pi_p_a3_a9=0.000
pi_p_a5_a6=0.000
pi_p_a11_a1=0.000
pi_d_a9_a4_proc_0=0.000
pi_d_a4_a11_proc_0=0.000
pi_y1_a0=-0.135
pi_y1_a1=-0.081
pi_y1_a2=-0.128
pi_y1_a3=-0.164
pi_y1_a4=-0.064
pi_y1_a5=-0.131
pi_y1_a6=-0.122
pi_y1_a9=-0.110
pi_y1_a11=-0.063
pi_y2_a0_proc_0=0.007
pi_y2_a5_proc_1=0.066
